33D32945 STP File, STP Format Version 1.0

SECTION Result
Length 19
Time 0,005333
Algorithm KMB
END

SECTION Comment
Name "full_32"
END

SECTION Graph
Nodes 32
Edges 496
E 25 24 16
E 25 23 8
E 16 4 7
E 16 3 1
E 16 2 19
E 16 1 20
E 25 20 1
E 25 22 19
E 25 21 6
E 28 9 15
E 14 13 11
E 28 8 8
E 14 12 18
E 28 7 6
E 28 6 19
E 28 5 7
E 28 4 13
E 14 11 6
E 14 10 9
E 27 4 15
E 27 3 19
E 27 2 3
E 27 1 4
E 16 9 9
E 16 8 1
E 16 7 2
E 16 6 2
E 16 5 10
E 15 5 16
E 15 4 3
E 15 3 14
E 15 2 11
E 15 1 12
E 27 9 11
E 27 8 6
E 27 7 2
E 27 6 10
E 27 5 2
E 25 13 11
E 25 12 18
E 25 15 10
E 25 14 1
E 25 17 4
E 25 16 1
E 25 19 8
E 25 18 20
E 26 5 10
E 26 4 10
E 26 3 2
E 26 2 6
E 26 1 4
E 25 11 16
E 25 10 14
E 15 9 14
E 15 8 1
E 15 7 3
E 15 6 17
E 24 12 8
E 24 11 2
E 24 14 4
E 24 13 17
E 24 16 18
E 24 15 14
E 24 18 19
E 24 17 17
E 14 6 17
E 14 5 19
E 14 4 13
E 14 3 20
E 14 2 15
E 14 1 19
E 24 10 3
E 26 9 2
E 26 8 13
E 26 7 13
E 26 6 1
E 24 23 8
E 24 22 2
E 25 6 9
E 25 5 19
E 25 4 14
E 25 3 2
E 25 2 1
E 25 1 15
E 24 21 14
E 24 20 2
E 13 11 5
E 13 12 14
E 14 9 15
E 14 8 1
E 14 7 20
E 24 19 5
E 13 10 9
E 23 21 20
E 23 22 16
E 13 7 12
E 13 6 3
E 13 5 7
E 13 4 13
E 13 3 13
E 13 2 12
E 13 1 7
E 23 20 8
E 12 10 3
E 12 11 4
E 25 9 11
E 25 8 9
E 25 7 2
E 23 18 20
E 23 19 14
E 24 7 17
E 24 6 9
E 24 5 11
E 24 4 18
E 24 3 16
E 24 2 14
E 24 1 11
E 13 9 4
E 13 8 3
E 28 17 18
E 28 18 16
E 28 15 11
E 28 16 14
E 28 19 6
E 12 8 20
E 12 7 7
E 28 10 15
E 12 6 4
E 12 5 15
E 12 4 9
E 28 13 6
E 12 3 4
E 28 14 7
E 12 2 7
E 28 11 18
E 12 1 20
E 28 12 19
E 24 9 7
E 24 8 8
E 28 26 18
E 28 27 4
E 23 8 20
E 28 20 7
E 23 7 19
E 28 21 2
E 23 6 5
E 23 5 10
E 23 4 11
E 28 24 14
E 23 3 11
E 28 25 14
E 23 2 10
E 28 22 1
E 23 1 9
E 28 23 4
E 9 1 19
E 9 2 2
E 9 3 18
E 9 4 7
E 9 5 7
E 17 15 7
E 9 6 18
E 17 16 12
E 9 7 19
E 9 8 15
E 12 9 4
E 17 11 9
E 17 12 19
E 17 13 10
E 17 14 5
E 17 10 5
E 11 1 8
E 27 25 5
E 27 26 18
E 11 9 5
E 11 8 12
E 27 20 6
E 11 7 10
E 11 6 19
E 11 5 15
E 27 23 17
E 11 4 8
E 27 24 16
E 11 3 1
E 27 21 12
E 11 2 7
E 27 22 20
E 16 15 17
E 16 14 11
E 23 9 13
E 16 13 16
E 16 12 8
E 16 11 9
E 16 10 8
E 22 1 8
E 22 9 11
E 22 8 2
E 22 7 6
E 22 6 14
E 22 5 12
E 22 4 6
E 22 3 2
E 8 1 6
E 22 2 16
E 8 2 5
E 8 3 9
E 8 4 3
E 8 5 13
E 8 6 13
E 8 7 18
E 10 2 20
E 10 1 19
E 10 9 8
E 10 8 1
E 10 7 11
E 10 6 11
E 10 5 7
E 10 4 17
E 10 3 2
E 21 2 2
E 27 16 5
E 21 1 8
E 27 17 18
E 27 14 8
E 27 15 13
E 27 18 17
E 27 19 4
E 21 9 5
E 21 8 19
E 21 7 11
E 21 6 8
E 27 12 11
E 21 5 5
E 27 13 3
E 7 1 4
E 21 4 18
E 27 10 12
E 7 2 16
E 21 3 19
E 27 11 13
E 7 3 18
E 7 4 18
E 7 5 15
E 7 6 6
E 32 2 6
E 26 15 1
E 32 1 19
E 26 16 6
E 26 13 12
E 26 14 15
E 26 19 8
E 26 17 13
E 26 18 7
E 32 9 6
E 32 8 4
E 32 7 18
E 32 6 14
E 26 11 19
E 32 5 20
E 26 12 18
E 32 4 13
E 32 3 1
E 26 10 19
E 20 3 2
E 20 2 6
E 20 1 1
E 26 24 11
E 26 25 10
E 20 9 16
E 20 8 12
E 20 7 19
E 26 22 15
E 6 1 6
E 20 6 13
E 26 23 5
E 6 2 8
E 20 5 2
E 26 20 12
E 6 3 14
E 20 4 18
E 26 21 3
E 6 4 6
E 6 5 10
E 15 14 17
E 15 13 13
E 15 12 18
E 15 11 12
E 15 10 6
E 31 3 12
E 31 2 9
E 31 1 4
E 31 27 19
E 31 26 9
E 31 29 2
E 31 28 18
E 20 14 9
E 20 13 10
E 31 9 4
E 20 12 19
E 31 8 11
E 20 11 5
E 31 7 5
E 20 10 11
E 31 6 3
E 31 5 8
E 31 4 11
E 31 30 7
E 31 19 7
E 31 16 4
E 31 15 1
E 31 18 13
E 31 17 12
E 5 1 12
E 5 2 8
E 5 3 18
E 5 4 16
E 20 19 14
E 20 18 16
E 20 17 19
E 20 16 3
E 20 15 4
E 31 23 19
E 31 22 19
E 31 25 20
E 31 24 12
E 31 21 13
E 31 20 14
E 30 4 19
E 30 3 4
E 30 2 14
E 30 1 9
E 30 9 12
E 30 8 12
E 30 7 12
E 30 6 18
E 30 5 5
E 31 12 1
E 31 11 2
E 31 14 12
E 31 13 12
E 31 10 13
E 30 29 12
E 30 26 9
E 30 25 10
E 30 28 2
E 30 27 12
E 4 1 16
E 4 2 20
E 4 3 18
E 19 18 9
E 19 17 12
E 19 14 15
E 19 13 13
E 19 16 12
E 19 15 8
E 19 10 2
E 19 12 13
E 19 11 11
E 30 19 11
E 30 18 16
E 29 28 20
E 29 27 3
E 30 15 11
E 30 14 5
E 30 17 10
E 30 16 6
E 29 22 1
E 29 21 18
E 29 20 14
E 29 26 3
E 29 25 13
E 29 24 7
E 29 23 2
E 18 16 4
E 18 17 7
E 18 12 16
E 30 22 9
E 18 13 5
E 30 21 6
E 18 14 4
E 30 24 17
E 18 15 15
E 30 23 19
E 18 10 11
E 30 20 16
E 18 11 8
E 3 1 11
E 3 2 20
E 30 11 6
E 30 10 15
E 30 13 3
E 30 12 4
E 29 19 9
E 29 18 18
E 29 17 4
E 29 16 15
E 29 11 8
E 2 1 10
E 29 10 13
E 29 15 12
E 29 14 7
E 29 13 12
E 29 12 15
E 23 10 10
E 23 11 20
E 23 12 7
E 23 13 20
E 23 14 6
E 23 15 19
E 23 16 17
E 23 17 20
E 22 10 1
E 22 11 3
E 22 12 14
E 22 13 12
E 22 14 17
E 22 15 11
E 22 16 8
E 19 1 18
E 22 20 12
E 22 21 13
E 19 9 4
E 11 10 20
E 19 8 13
E 19 7 15
E 19 6 13
E 19 5 11
E 19 4 7
E 19 3 6
E 19 2 11
E 22 17 3
E 22 18 11
E 22 19 20
E 18 2 9
E 18 1 17
E 21 20 13
E 21 19 7
E 21 18 7
E 21 17 15
E 21 16 17
E 32 29 5
E 32 27 5
E 32 28 10
E 29 2 17
E 29 1 20
E 18 9 15
E 18 8 7
E 18 7 20
E 18 6 6
E 18 5 8
E 18 4 19
E 18 3 13
E 32 30 12
E 32 31 6
E 32 18 16
E 32 19 1
E 32 16 17
E 32 17 15
E 17 3 17
E 17 2 2
E 17 1 5
E 29 9 15
E 29 8 6
E 29 7 7
E 29 6 10
E 29 5 8
E 29 4 8
E 29 3 17
E 32 25 15
E 32 26 17
E 32 23 19
E 32 24 2
E 32 21 3
E 32 22 8
E 32 20 11
E 28 3 12
E 21 15 15
E 28 2 2
E 21 14 18
E 28 1 17
E 21 13 17
E 21 12 3
E 21 11 3
E 21 10 4
E 17 9 10
E 17 8 4
E 17 7 12
E 17 6 14
E 17 5 12
E 17 4 6
E 32 14 12
E 32 15 12
E 32 12 1
E 32 13 14
E 32 10 10
E 32 11 19
END

SECTION Terminals
Terminals 10
T 9
T 14
T 17
T 19
T 22
T 28
T 29
T 30
T 31
T 32
END

SECTION Solution
S 32 12 1
S 32 19 1
S 28 2 2
S 29 22 1
S 30 28 2
S 22 17 3
S 31 12 1
S 14 8 1
S 31 29 2
S 22 8 2
S 28 22 1
S 9 2 2
END

EOF
